(set-logic QF_SLIA)
(set-option :produce-models true)
(declare-const X String)
; ^http[s]?://twitter\.com/(#!/)?[a-zA-Z0-9]{1,15}[/]?$
(assert (not (str.in_re X (re.++ (str.to_re "http") (re.opt (str.to_re "s")) (str.to_re "://twitter.com/") (re.opt (str.to_re "#!/")) ((_ re.loop 1 15) (re.union (re.range "a" "z") (re.range "A" "Z") (re.range "0" "9"))) (re.opt (str.to_re "/")) (str.to_re "\u{0a}")))))
; [0-9]{2}-?[DF][A-Z]{2}-?[0-9]{1}|[DF][A-Z]{1}-?[0-9]{3}-?[A-Z]{1}|[DF]-?[0-9]{3}-?[A-Z]{2}|[DF][A-Z]{2}-?[0-9]{2}-?[A-Z]{1}$
(assert (not (str.in_re X (re.union (re.++ ((_ re.loop 2 2) (re.range "0" "9")) (re.opt (str.to_re "-")) (re.union (str.to_re "D") (str.to_re "F")) ((_ re.loop 2 2) (re.range "A" "Z")) (re.opt (str.to_re "-")) ((_ re.loop 1 1) (re.range "0" "9"))) (re.++ (re.union (str.to_re "D") (str.to_re "F")) ((_ re.loop 1 1) (re.range "A" "Z")) (re.opt (str.to_re "-")) ((_ re.loop 3 3) (re.range "0" "9")) (re.opt (str.to_re "-")) ((_ re.loop 1 1) (re.range "A" "Z"))) (re.++ (re.union (str.to_re "D") (str.to_re "F")) (re.opt (str.to_re "-")) ((_ re.loop 3 3) (re.range "0" "9")) (re.opt (str.to_re "-")) ((_ re.loop 2 2) (re.range "A" "Z"))) (re.++ (re.union (str.to_re "D") (str.to_re "F")) ((_ re.loop 2 2) (re.range "A" "Z")) (re.opt (str.to_re "-")) ((_ re.loop 2 2) (re.range "0" "9")) (re.opt (str.to_re "-")) ((_ re.loop 1 1) (re.range "A" "Z")) (str.to_re "\u{0a}"))))))
; ^(((Ctrl\+Alt\+Shift\+Cmd\+|Ctrl\+Shift\+Cmd\+|Ctrl\+Alt\+Shift\+|Ctrl\+Alt\+Cmd\+|Alt\+Shift\+Cmd\+|Shift\+Cmd\+|Ctrl\+Shift\+|Ctrl\+Cmd\+|Ctrl\+Alt\+|Alt\+Shift\+|Alt\+Cmd\+|Cmd\+|Alt\+)(F1[0-2]|F[1-9]|[A-Za-z0-9\-\=\[\]\\\;\'\,\.\/]))|(Shift\+)?(F1[0-2]|F[1-9]))$
(assert (not (str.in_re X (re.++ (re.union (re.++ (re.union (str.to_re "Ctrl+Alt+Shift+Cmd+") (str.to_re "Ctrl+Shift+Cmd+") (str.to_re "Ctrl+Alt+Shift+") (str.to_re "Ctrl+Alt+Cmd+") (str.to_re "Alt+Shift+Cmd+") (str.to_re "Shift+Cmd+") (str.to_re "Ctrl+Shift+") (str.to_re "Ctrl+Cmd+") (str.to_re "Ctrl+Alt+") (str.to_re "Alt+Shift+") (str.to_re "Alt+Cmd+") (str.to_re "Cmd+") (str.to_re "Alt+")) (re.union (re.++ (str.to_re "F1") (re.range "0" "2")) (re.++ (str.to_re "F") (re.range "1" "9")) (re.range "A" "Z") (re.range "a" "z") (re.range "0" "9") (str.to_re "-") (str.to_re "=") (str.to_re "[") (str.to_re "]") (str.to_re "\u{5c}") (str.to_re ";") (str.to_re "'") (str.to_re ",") (str.to_re ".") (str.to_re "/"))) (re.++ (re.opt (str.to_re "Shift+")) (str.to_re "F") (re.union (re.++ (str.to_re "1") (re.range "0" "2")) (re.range "1" "9")))) (str.to_re "\u{0a}")))))
; www\x2Ealtnet\x2Ecom[^\n\r]*Host\x3A
(assert (not (str.in_re X (re.++ (str.to_re "www.altnet.com\u{1b}") (re.* (re.union (str.to_re "\u{0a}") (str.to_re "\u{0d}"))) (str.to_re "Host:\u{0a}")))))
; /^icmp\u{7c}\d+\u{7c}\d+\x7C[a-z0-9]+\x2E[a-z]{2,3}\x7C[a-z0-9]+\x7C/
(assert (not (str.in_re X (re.++ (str.to_re "/icmp|") (re.+ (re.range "0" "9")) (str.to_re "|") (re.+ (re.range "0" "9")) (str.to_re "|") (re.+ (re.union (re.range "a" "z") (re.range "0" "9"))) (str.to_re ".") ((_ re.loop 2 3) (re.range "a" "z")) (str.to_re "|") (re.+ (re.union (re.range "a" "z") (re.range "0" "9"))) (str.to_re "|/\u{0a}")))))
(check-sat)
